6594.0 
6663.0 
6594.0 
6591.0 
6523.0 
6591.0 
6616.0 
6647.0 
6647.0 
6609.0 
6633.0 
6575.0 
6647.0 
6689.0 
6596.0 
6623.0 
6662.0 
6610.0 
6670.0 
6639.0 
6585.0 
6617.0 
6557.0 
6667.0 
6671.0 
6632.0 
6680.0 
6590.0 
6594.0 
6620.0 
6569.0 
